units 	 real 	 # angstroms,kCal/mol,Daltons,Kelvin
atom_style 	 full 	 # select column format for Atoms section
pair_style 	 lj/cut 12.0	 # cutoffLJ cutoff_coulomb
boundary 	 p p p
special_bonds lj/coul 0.0 0.0 0.5 	 #scale factor for converting between tinker and lammps parameters
